nN = 5;
nR = 30;
nH = 2;

a = [[16, 14, 16, 21, 13, 14, 14, 21, 20, 19, 25, 12, 22, 17, 12, 21, 11, 10, 24, 15, 23, 14, 14, 20, 15, 23, 14, 23, 13, 22], [24, 18, 23, 18, 12, 20, 12, 15, 14, 22, 22, 18, 18, 21, 12, 19, 18, 13, 16, 16, 16, 10, 18, 15, 14, 13, 23, 15, 12, 10], [20, 16, 15, 18, 24, 16, 21, 21, 24, 15, 14, 23, 11, 12, 15, 14, 18, 15, 14, 12, 25, 20, 23, 13, 16, 23, 18, 20, 22, 16], [20, 14, 20, 16, 17, 24, 15, 23, 13, 11, 18, 22, 10, 15, 19, 10, 21, 10, 21, 11, 13, 16, 18, 22, 20, 16, 21, 22, 19, 20], [19, 15, 12, 11, 23, 24, 15, 17, 17, 11, 23, 14, 20, 21, 22, 16, 16, 23, 10, 22, 12, 25, 24, 20, 13, 20, 16, 11, 23, 18]];
c = [[[0, 0, 0, 0, 0, 0, 0, 0, 0, 0, 0, 0, 0, 0, 0, 0, 0, 0, 0, 0, 0, 0, 0, 0, 0, 0, 0, 0, 0, 0], [39, 35, 42, 32, 46, 31, 31, 48, 50, 46, 40, 36, 47, 36, 36, 46, 35, 36, 48, 49, 31, 34, 50, 32, 50, 30, 31, 37, 33, 46], [33, 30, 44, 44, 41, 31, 34, 39, 35, 39, 43, 38, 33, 49, 48, 40, 37, 35, 45, 44, 40, 35, 47, 37, 40, 45, 31, 35, 45, 43], [32, 46, 39, 32, 46, 34, 45, 37, 41, 49, 40, 33, 44, 49, 37, 46, 30, 48, 40, 39, 43, 46, 50, 46, 32, 49, 50, 47, 36, 43], [43, 38, 39, 38, 50, 47, 48, 36, 50, 40, 39, 40, 31, 49, 30, 47, 33, 39, 30, 50, 32, 44, 45, 43, 40, 44, 31, 49, 45, 48]], [[0, 0, 0, 0, 0, 0, 0, 0, 0, 0, 0, 0, 0, 0, 0, 0, 0, 0, 0, 0, 0, 0, 0, 0, 0, 0, 0, 0, 0, 0], [0, 0, 0, 0, 0, 0, 0, 0, 0, 0, 0, 0, 0, 0, 0, 0, 0, 0, 0, 0, 0, 0, 0, 0, 0, 0, 0, 0, 0, 0], [46, 44, 32, 41, 38, 32, 43, 35, 33, 45, 39, 47, 44, 34, 49, 31, 36, 37, 38, 43, 32, 39, 31, 49, 45, 41, 47, 50, 41, 31], [44, 46, 31, 43, 48, 46, 32, 33, 45, 31, 47, 30, 41, 45, 42, 30, 38, 39, 45, 33, 41, 46, 37, 41, 41, 33, 43, 46, 40, 42], [40, 36, 47, 39, 44, 49, 42, 37, 41, 39, 35, 39, 50, 44, 33, 49, 49, 32, 35, 43, 33, 44, 31, 48, 47, 46, 39, 43, 43, 50]], [[0, 0, 0, 0, 0, 0, 0, 0, 0, 0, 0, 0, 0, 0, 0, 0, 0, 0, 0, 0, 0, 0, 0, 0, 0, 0, 0, 0, 0, 0], [0, 0, 0, 0, 0, 0, 0, 0, 0, 0, 0, 0, 0, 0, 0, 0, 0, 0, 0, 0, 0, 0, 0, 0, 0, 0, 0, 0, 0, 0], [0, 0, 0, 0, 0, 0, 0, 0, 0, 0, 0, 0, 0, 0, 0, 0, 0, 0, 0, 0, 0, 0, 0, 0, 0, 0, 0, 0, 0, 0], [50, 38, 37, 40, 40, 30, 44, 45, 45, 40, 46, 33, 34, 48, 45, 48, 38, 30, 41, 41, 36, 32, 50, 49, 36, 48, 37, 49, 30, 37], [49, 40, 37, 35, 32, 48, 42, 43, 32, 35, 41, 43, 33, 37, 40, 42, 30, 39, 42, 37, 40, 34, 47, 34, 39, 37, 44, 50, 49, 42]], [[0, 0, 0, 0, 0, 0, 0, 0, 0, 0, 0, 0, 0, 0, 0, 0, 0, 0, 0, 0, 0, 0, 0, 0, 0, 0, 0, 0, 0, 0], [0, 0, 0, 0, 0, 0, 0, 0, 0, 0, 0, 0, 0, 0, 0, 0, 0, 0, 0, 0, 0, 0, 0, 0, 0, 0, 0, 0, 0, 0], [0, 0, 0, 0, 0, 0, 0, 0, 0, 0, 0, 0, 0, 0, 0, 0, 0, 0, 0, 0, 0, 0, 0, 0, 0, 0, 0, 0, 0, 0], [0, 0, 0, 0, 0, 0, 0, 0, 0, 0, 0, 0, 0, 0, 0, 0, 0, 0, 0, 0, 0, 0, 0, 0, 0, 0, 0, 0, 0, 0], [30, 43, 47, 49, 48, 35, 33, 30, 33, 48, 33, 36, 46, 47, 38, 38, 39, 48, 32, 35, 32, 32, 30, 46, 50, 41, 36, 32, 35, 41]], [[0, 0, 0, 0, 0, 0, 0, 0, 0, 0, 0, 0, 0, 0, 0, 0, 0, 0, 0, 0, 0, 0, 0, 0, 0, 0, 0, 0, 0, 0], [0, 0, 0, 0, 0, 0, 0, 0, 0, 0, 0, 0, 0, 0, 0, 0, 0, 0, 0, 0, 0, 0, 0, 0, 0, 0, 0, 0, 0, 0], [0, 0, 0, 0, 0, 0, 0, 0, 0, 0, 0, 0, 0, 0, 0, 0, 0, 0, 0, 0, 0, 0, 0, 0, 0, 0, 0, 0, 0, 0], [0, 0, 0, 0, 0, 0, 0, 0, 0, 0, 0, 0, 0, 0, 0, 0, 0, 0, 0, 0, 0, 0, 0, 0, 0, 0, 0, 0, 0, 0], [0, 0, 0, 0, 0, 0, 0, 0, 0, 0, 0, 0, 0, 0, 0, 0, 0, 0, 0, 0, 0, 0, 0, 0, 0, 0, 0, 0, 0, 0]]];

q = [[[15, 109], [16, 110], [24, 109], [17, 114], [9, 121], [18, 118], [5, 108], [8, 114], [25, 106], [21, 113], [22, 121], [22, 106], [11, 114], [7, 119], [23, 110], [15, 116], [16, 113], [19, 111], [22, 122], [21, 113], [6, 105], [14, 124], [13, 119], [19, 115], [21, 118], [14, 115], [21, 119], [15, 122], [17, 113], [10, 123]], [[22, 117], [13, 110], [7, 116], [14, 115], [23, 114], [10, 123], [6, 125], [11, 114], [21, 122], [14, 122], [15, 115], [9, 111], [13, 123], [18, 119], [15, 124], [14, 112], [7, 112], [7, 114], [17, 106], [8, 111], [16, 112], [19, 120], [16, 120], [15, 119], [10, 121], [7, 119], [12, 105], [10, 108], [21, 108], [13, 107]], [[9, 105], [16, 114], [13, 115], [20, 118], [10, 111], [17, 119], [16, 118], [15, 113], [24, 120], [12, 119], [16, 115], [8, 124], [6, 110], [6, 115], [21, 122], [23, 106], [6, 118], [16, 105], [9, 115], [18, 122], [20, 118], [10, 120], [12, 111], [15, 112], [20, 113], [21, 117], [11, 124], [9, 110], [18, 106], [25, 106]], [[14, 124], [22, 124], [23, 110], [8, 123], [25, 120], [24, 114], [23, 109], [12, 117], [8, 112], [15, 114], [13, 123], [23, 120], [7, 117], [11, 111], [10, 117], [10, 112], [21, 116], [19, 111], [23, 116], [24, 108], [7, 120], [8, 109], [18, 110], [11, 115], [18, 121], [10, 111], [19, 105], [25, 106], [16, 122], [10, 112]], [[10, 110], [15, 107], [20, 114], [21, 121], [12, 107], [23, 105], [19, 108], [11, 113], [9, 113], [20, 123], [9, 110], [13, 110], [11, 108], [10, 124], [11, 114], [8, 116], [18, 112], [10, 108], [8, 118], [6, 114], [19, 123], [15, 109], [7, 120], [16, 114], [5, 119], [17, 109], [24, 115], [12, 117], [20, 110], [21, 111]]];
Q = [[78, 551], [64, 555], [71, 551], [76, 552], [67, 545]];
